NAME : cgl_107.6736.tour
COMMENT : Length = 6736
COMMENT : Found by LKH-3 [Keld Helsgaun] Fri Nov  8 19:20:31 2024
TYPE : TOUR
DIMENSION : 107
TOUR_SECTION
16
42
32
43
44
40
45
46
47
48
49
22
31
20
21
50
30
19
51
28
10
11
9
12
98
99
100
101
103
104
102
106
105
107
1
2
6
7
8
97
4
3
5
90
96
72
95
93
91
92
73
74
94
75
88
83
80
84
87
77
76
82
79
86
89
85
81
78
68
63
61
70
69
58
62
60
59
71
67
57
64
65
66
56
52
53
54
55
29
27
24
17
25
26
18
15
23
14
13
33
37
36
38
35
41
39
34
-1
EOF
